1600 3200
1 2 5
1 41 1
2 3 5
2 42 2
3 4 1
3 43 3
4 5 5
4 44 2
5 6 1
5 45 5
6 7 4
6 46 3
7 8 5
7 47 1
8 9 5
8 48 4
9 10 1
9 49 2
10 11 3
10 50 1
11 12 1
11 51 2
12 13 4
12 52 3
13 14 3
13 53 2
14 15 2
14 54 4
15 16 3
15 55 2
16 17 2
16 56 2
17 18 3
17 57 5
18 19 4
18 58 2
19 20 1
19 59 1
20 21 2
20 60 2
21 22 4
21 61 4
22 23 1
22 62 2
23 24 2
23 63 1
24 25 4
24 64 1
25 26 4
25 65 4
26 27 1
26 66 4
27 28 2
27 67 1
28 29 4
28 68 2
29 30 1
29 69 4
30 31 5
30 70 3
31 32 5
31 71 3
32 33 4
32 72 2
33 34 5
33 73 3
34 35 2
34 74 4
35 36 4
35 75 1
36 37 5
36 76 3
37 38 2
37 77 5
38 39 1
38 78 5
39 40 2
39 79 5
40 80 4
41 42 4
41 81 5
42 43 3
42 82 4
43 44 2
43 83 2
44 45 3
44 84 5
45 46 4
45 85 1
46 47 3
46 86 5
47 48 5
47 87 3
48 49 1
48 88 2
49 50 3
49 89 1
50 51 3
50 90 4
51 52 3
51 91 5
52 53 3
52 92 4
53 54 3
53 93 2
54 55 1
54 94 4
55 56 2
55 95 5
56 57 1
56 96 3
57 58 1
57 97 2
58 59 5
58 98 5
59 60 4
59 99 1
60 61 5
60 100 3
61 62 2
61 101 1
62 63 2
62 102 2
63 64 2
63 103 4
64 65 2
64 104 4
65 66 1
65 105 5
66 67 1
66 106 3
67 68 1
67 107 3
68 69 3
68 108 3
69 70 5
69 109 2
70 71 2
70 110 3
71 72 1
71 111 1
72 73 5
72 112 2
73 74 2
73 113 2
74 75 4
74 114 2
75 76 3
75 115 2
76 77 5
76 116 1
77 78 3
77 117 2
78 79 3
78 118 2
79 80 2
79 119 1
80 120 3
81 82 5
81 121 2
82 83 3
82 122 1
83 84 4
83 123 2
84 85 4
84 124 1
85 86 5
85 125 3
86 87 1
86 126 2
87 88 5
87 127 2
88 89 2
88 128 3
89 90 4
89 129 1
90 91 1
90 130 4
91 92 5
91 131 3
92 93 4
92 132 5
93 94 2
93 133 5
94 95 5
94 134 3
95 96 1
95 135 3
96 97 1
96 136 3
97 98 1
97 137 3
98 99 1
98 138 4
99 100 5
99 139 2
100 101 5
100 140 1
101 102 5
101 141 3
102 103 2
102 142 4
103 104 1
103 143 2
104 105 4
104 144 2
105 106 5
105 145 1
106 107 5
106 146 4
107 108 4
107 147 1
108 109 4
108 148 2
109 110 2
109 149 4
110 111 5
110 150 5
111 112 4
111 151 3
112 113 2
112 152 2
113 114 2
113 153 3
114 115 5
114 154 3
115 116 3
115 155 5
116 117 2
116 156 3
117 118 5
117 157 2
118 119 3
118 158 2
119 120 1
119 159 5
120 160 3
121 122 3
121 161 5
122 123 4
122 162 3
123 124 3
123 163 4
124 125 5
124 164 4
125 126 4
125 165 2
126 127 5
126 166 3
127 128 2
127 167 1
128 129 1
128 168 3
129 130 4
129 169 4
130 131 3
130 170 2
131 132 5
131 171 1
132 133 4
132 172 1
133 134 5
133 173 5
134 135 5
134 174 4
135 136 5
135 175 5
136 137 4
136 176 3
137 138 2
137 177 4
138 139 5
138 178 3
139 140 2
139 179 4
140 141 3
140 180 5
141 142 4
141 181 2
142 143 5
142 182 1
143 144 5
143 183 2
144 145 3
144 184 4
145 146 5
145 185 5
146 147 2
146 186 5
147 148 3
147 187 5
148 149 1
148 188 5
149 150 1
149 189 5
150 151 5
150 190 4
151 152 5
151 191 2
152 153 4
152 192 4
153 154 2
153 193 4
154 155 1
154 194 5
155 156 2
155 195 1
156 157 1
156 196 5
157 158 3
157 197 2
158 159 3
158 198 3
159 160 5
159 199 4
160 200 1
161 162 5
161 201 2
162 163 3
162 202 4
163 164 1
163 203 1
164 165 2
164 204 1
165 166 5
165 205 3
166 167 5
166 206 4
167 168 3
167 207 2
168 169 4
168 208 4
169 170 5
169 209 1
170 171 2
170 210 5
171 172 5
171 211 5
172 173 4
172 212 4
173 174 3
173 213 1
174 175 3
174 214 3
175 176 1
175 215 2
176 177 4
176 216 1
177 178 5
177 217 2
178 179 3
178 218 1
179 180 2
179 219 5
180 181 3
180 220 1
181 182 4
181 221 4
182 183 2
182 222 2
183 184 3
183 223 5
184 185 2
184 224 4
185 186 5
185 225 1
186 187 5
186 226 5
187 188 5
187 227 5
188 189 5
188 228 4
189 190 4
189 229 4
190 191 3
190 230 4
191 192 4
191 231 3
192 193 4
192 232 5
193 194 4
193 233 3
194 195 1
194 234 1
195 196 5
195 235 5
196 197 4
196 236 2
197 198 3
197 237 4
198 199 5
198 238 4
199 200 5
199 239 3
200 240 3
201 202 4
201 241 4
202 203 5
202 242 4
203 204 5
203 243 5
204 205 1
204 244 4
205 206 3
205 245 5
206 207 5
206 246 5
207 208 4
207 247 4
208 209 2
208 248 1
209 210 5
209 249 5
210 211 2
210 250 1
211 212 3
211 251 2
212 213 1
212 252 1
213 214 2
213 253 5
214 215 3
214 254 2
215 216 3
215 255 5
216 217 5
216 256 1
217 218 2
217 257 3
218 219 4
218 258 5
219 220 4
219 259 5
220 221 4
220 260 4
221 222 5
221 261 2
222 223 1
222 262 1
223 224 2
223 263 2
224 225 2
224 264 1
225 226 1
225 265 3
226 227 3
226 266 3
227 228 4
227 267 4
228 229 3
228 268 2
229 230 1
229 269 5
230 231 1
230 270 5
231 232 2
231 271 2
232 233 2
232 272 2
233 234 2
233 273 3
234 235 3
234 274 5
235 236 2
235 275 4
236 237 2
236 276 5
237 238 1
237 277 4
238 239 3
238 278 4
239 240 5
239 279 3
240 280 1
241 242 2
241 281 4
242 243 2
242 282 3
243 244 3
243 283 4
244 245 5
244 284 1
245 246 5
245 285 5
246 247 4
246 286 2
247 248 5
247 287 2
248 249 2
248 288 2
249 250 5
249 289 5
250 251 3
250 290 1
251 252 5
251 291 2
252 253 2
252 292 3
253 254 4
253 293 5
254 255 2
254 294 1
255 256 5
255 295 5
256 257 3
256 296 5
257 258 5
257 297 5
258 259 5
258 298 3
259 260 4
259 299 1
260 261 3
260 300 2
261 262 3
261 301 3
262 263 2
262 302 5
263 264 1
263 303 3
264 265 4
264 304 2
265 266 3
265 305 3
266 267 4
266 306 5
267 268 5
267 307 2
268 269 2
268 308 3
269 270 3
269 309 3
270 271 5
270 310 5
271 272 1
271 311 3
272 273 5
272 312 2
273 274 5
273 313 5
274 275 5
274 314 5
275 276 4
275 315 4
276 277 2
276 316 1
277 278 3
277 317 3
278 279 1
278 318 3
279 280 5
279 319 5
280 320 5
281 282 4
281 321 2
282 283 5
282 322 1
283 284 4
283 323 5
284 285 2
284 324 2
285 286 3
285 325 5
286 287 3
286 326 3
287 288 4
287 327 2
288 289 1
288 328 4
289 290 4
289 329 1
290 291 2
290 330 5
291 292 5
291 331 5
292 293 5
292 332 4
293 294 4
293 333 3
294 295 4
294 334 1
295 296 5
295 335 4
296 297 3
296 336 3
297 298 5
297 337 1
298 299 4
298 338 4
299 300 1
299 339 2
300 301 2
300 340 3
301 302 2
301 341 1
302 303 2
302 342 1
303 304 3
303 343 3
304 305 3
304 344 5
305 306 4
305 345 5
306 307 3
306 346 5
307 308 2
307 347 3
308 309 4
308 348 3
309 310 1
309 349 1
310 311 5
310 350 4
311 312 2
311 351 5
312 313 3
312 352 5
313 314 2
313 353 1
314 315 1
314 354 5
315 316 4
315 355 1
316 317 2
316 356 1
317 318 3
317 357 1
318 319 3
318 358 1
319 320 3
319 359 3
320 360 4
321 322 4
321 361 4
322 323 4
322 362 4
323 324 2
323 363 2
324 325 2
324 364 2
325 326 4
325 365 5
326 327 5
326 366 4
327 328 5
327 367 1
328 329 5
328 368 1
329 330 2
329 369 1
330 331 3
330 370 5
331 332 1
331 371 3
332 333 1
332 372 2
333 334 4
333 373 1
334 335 4
334 374 2
335 336 2
335 375 5
336 337 2
336 376 3
337 338 4
337 377 4
338 339 1
338 378 2
339 340 5
339 379 1
340 341 3
340 380 1
341 342 2
341 381 4
342 343 5
342 382 4
343 344 4
343 383 4
344 345 3
344 384 1
345 346 1
345 385 1
346 347 1
346 386 2
347 348 4
347 387 3
348 349 2
348 388 2
349 350 2
349 389 2
350 351 1
350 390 1
351 352 3
351 391 2
352 353 1
352 392 4
353 354 3
353 393 1
354 355 4
354 394 5
355 356 4
355 395 2
356 357 5
356 396 3
357 358 2
357 397 5
358 359 5
358 398 1
359 360 1
359 399 2
360 400 5
361 362 2
361 401 5
362 363 1
362 402 1
363 364 1
363 403 1
364 365 2
364 404 1
365 366 4
365 405 5
366 367 4
366 406 2
367 368 2
367 407 4
368 369 2
368 408 1
369 370 3
369 409 3
370 371 5
370 410 1
371 372 5
371 411 1
372 373 5
372 412 3
373 374 4
373 413 3
374 375 2
374 414 2
375 376 3
375 415 5
376 377 2
376 416 4
377 378 3
377 417 3
378 379 5
378 418 4
379 380 2
379 419 1
380 381 4
380 420 4
381 382 1
381 421 4
382 383 1
382 422 1
383 384 1
383 423 2
384 385 5
384 424 3
385 386 2
385 425 3
386 387 2
386 426 2
387 388 3
387 427 1
388 389 1
388 428 5
389 390 1
389 429 4
390 391 1
390 430 2
391 392 5
391 431 5
392 393 2
392 432 4
393 394 2
393 433 3
394 395 3
394 434 3
395 396 3
395 435 4
396 397 5
396 436 3
397 398 3
397 437 2
398 399 4
398 438 4
399 400 5
399 439 3
400 440 3
401 402 5
401 441 3
402 403 1
402 442 1
403 404 3
403 443 5
404 405 5
404 444 2
405 406 3
405 445 1
406 407 2
406 446 1
407 408 5
407 447 5
408 409 4
408 448 3
409 410 1
409 449 1
410 411 1
410 450 5
411 412 2
411 451 3
412 413 2
412 452 1
413 414 3
413 453 2
414 415 3
414 454 1
415 416 2
415 455 3
416 417 2
416 456 3
417 418 3
417 457 5
418 419 5
418 458 3
419 420 5
419 459 3
420 421 3
420 460 1
421 422 1
421 461 1
422 423 3
422 462 5
423 424 4
423 463 3
424 425 3
424 464 3
425 426 4
425 465 3
426 427 5
426 466 1
427 428 1
427 467 5
428 429 5
428 468 4
429 430 3
429 469 5
430 431 4
430 470 3
431 432 5
431 471 1
432 433 1
432 472 3
433 434 1
433 473 2
434 435 2
434 474 2
435 436 1
435 475 3
436 437 3
436 476 4
437 438 5
437 477 3
438 439 4
438 478 2
439 440 2
439 479 2
440 480 1
441 442 4
441 481 2
442 443 4
442 482 3
443 444 2
443 483 2
444 445 3
444 484 4
445 446 2
445 485 4
446 447 5
446 486 1
447 448 2
447 487 2
448 449 1
448 488 4
449 450 4
449 489 2
450 451 5
450 490 3
451 452 3
451 491 1
452 453 4
452 492 3
453 454 3
453 493 1
454 455 2
454 494 4
455 456 1
455 495 5
456 457 5
456 496 5
457 458 2
457 497 4
458 459 2
458 498 4
459 460 2
459 499 2
460 461 1
460 500 3
461 462 3
461 501 2
462 463 2
462 502 4
463 464 2
463 503 3
464 465 4
464 504 1
465 466 3
465 505 2
466 467 3
466 506 2
467 468 4
467 507 2
468 469 4
468 508 5
469 470 1
469 509 3
470 471 5
470 510 4
471 472 5
471 511 3
472 473 4
472 512 1
473 474 4
473 513 3
474 475 2
474 514 1
475 476 4
475 515 3
476 477 4
476 516 5
477 478 3
477 517 2
478 479 4
478 518 2
479 480 4
479 519 5
480 520 5
481 482 4
481 521 3
482 483 3
482 522 2
483 484 5
483 523 5
484 485 5
484 524 4
485 486 5
485 525 4
486 487 4
486 526 4
487 488 1
487 527 1
488 489 3
488 528 1
489 490 4
489 529 3
490 491 4
490 530 4
491 492 3
491 531 2
492 493 3
492 532 4
493 494 1
493 533 3
494 495 4
494 534 3
495 496 2
495 535 5
496 497 2
496 536 2
497 498 2
497 537 1
498 499 3
498 538 4
499 500 4
499 539 1
500 501 2
500 540 3
501 502 3
501 541 4
502 503 2
502 542 1
503 504 2
503 543 5
504 505 1
504 544 2
505 506 5
505 545 1
506 507 3
506 546 3
507 508 5
507 547 4
508 509 5
508 548 1
509 510 4
509 549 2
510 511 2
510 550 5
511 512 3
511 551 5
512 513 3
512 552 5
513 514 2
513 553 1
514 515 5
514 554 1
515 516 1
515 555 5
516 517 3
516 556 1
517 518 5
517 557 4
518 519 2
518 558 5
519 520 3
519 559 2
520 560 5
521 522 3
521 561 1
522 523 4
522 562 1
523 524 4
523 563 2
524 525 5
524 564 5
525 526 4
525 565 3
526 527 4
526 566 3
527 528 4
527 567 1
528 529 2
528 568 2
529 530 5
529 569 1
530 531 5
530 570 2
531 532 3
531 571 3
532 533 5
532 572 1
533 534 1
533 573 1
534 535 2
534 574 2
535 536 4
535 575 2
536 537 3
536 576 4
537 538 3
537 577 1
538 539 1
538 578 5
539 540 1
539 579 2
540 541 1
540 580 2
541 542 1
541 581 2
542 543 1
542 582 3
543 544 4
543 583 1
544 545 3
544 584 3
545 546 1
545 585 3
546 547 5
546 586 3
547 548 4
547 587 3
548 549 1
548 588 4
549 550 5
549 589 5
550 551 3
550 590 5
551 552 1
551 591 5
552 553 1
552 592 4
553 554 2
553 593 3
554 555 5
554 594 2
555 556 2
555 595 3
556 557 3
556 596 4
557 558 2
557 597 1
558 559 3
558 598 1
559 560 5
559 599 5
560 600 3
561 562 1
561 601 5
562 563 2
562 602 4
563 564 3
563 603 5
564 565 3
564 604 4
565 566 1
565 605 5
566 567 1
566 606 4
567 568 4
567 607 3
568 569 4
568 608 4
569 570 5
569 609 3
570 571 5
570 610 3
571 572 5
571 611 3
572 573 3
572 612 4
573 574 2
573 613 4
574 575 3
574 614 5
575 576 3
575 615 3
576 577 3
576 616 4
577 578 5
577 617 4
578 579 2
578 618 3
579 580 1
579 619 2
580 581 2
580 620 4
581 582 1
581 621 2
582 583 4
582 622 3
583 584 2
583 623 1
584 585 2
584 624 3
585 586 2
585 625 2
586 587 1
586 626 4
587 588 4
587 627 3
588 589 2
588 628 3
589 590 1
589 629 1
590 591 3
590 630 4
591 592 2
591 631 1
592 593 3
592 632 5
593 594 5
593 633 2
594 595 2
594 634 1
595 596 2
595 635 5
596 597 3
596 636 3
597 598 5
597 637 5
598 599 2
598 638 1
599 600 2
599 639 2
600 640 4
601 602 2
601 641 5
602 603 2
602 642 4
603 604 1
603 643 2
604 605 2
604 644 1
605 606 2
605 645 5
606 607 1
606 646 2
607 608 2
607 647 3
608 609 2
608 648 4
609 610 4
609 649 3
610 611 1
610 650 1
611 612 3
611 651 1
612 613 3
612 652 2
613 614 1
613 653 5
614 615 2
614 654 2
615 616 1
615 655 5
616 617 2
616 656 1
617 618 2
617 657 5
618 619 2
618 658 4
619 620 3
619 659 1
620 621 1
620 660 4
621 622 4
621 661 3
622 623 4
622 662 4
623 624 2
623 663 3
624 625 4
624 664 2
625 626 5
625 665 2
626 627 4
626 666 4
627 628 3
627 667 1
628 629 2
628 668 1
629 630 2
629 669 5
630 631 3
630 670 1
631 632 5
631 671 4
632 633 3
632 672 3
633 634 4
633 673 5
634 635 2
634 674 5
635 636 1
635 675 5
636 637 4
636 676 1
637 638 2
637 677 5
638 639 5
638 678 2
639 640 1
639 679 5
640 680 5
641 642 3
641 681 2
642 643 4
642 682 5
643 644 5
643 683 5
644 645 2
644 684 1
645 646 2
645 685 2
646 647 1
646 686 1
647 648 2
647 687 1
648 649 5
648 688 3
649 650 4
649 689 2
650 651 3
650 690 4
651 652 2
651 691 4
652 653 4
652 692 2
653 654 2
653 693 2
654 655 1
654 694 1
655 656 3
655 695 4
656 657 4
656 696 5
657 658 5
657 697 1
658 659 4
658 698 1
659 660 5
659 699 2
660 661 2
660 700 2
661 662 3
661 701 3
662 663 3
662 702 5
663 664 3
663 703 1
664 665 4
664 704 5
665 666 2
665 705 4
666 667 1
666 706 3
667 668 4
667 707 2
668 669 2
668 708 5
669 670 3
669 709 1
670 671 4
670 710 2
671 672 1
671 711 2
672 673 5
672 712 5
673 674 4
673 713 5
674 675 1
674 714 3
675 676 4
675 715 3
676 677 4
676 716 3
677 678 4
677 717 3
678 679 4
678 718 2
679 680 3
679 719 3
680 720 2
681 682 1
681 721 5
682 683 1
682 722 3
683 684 2
683 723 3
684 685 3
684 724 5
685 686 4
685 725 3
686 687 4
686 726 2
687 688 5
687 727 2
688 689 3
688 728 3
689 690 3
689 729 4
690 691 3
690 730 2
691 692 2
691 731 4
692 693 2
692 732 4
693 694 1
693 733 4
694 695 3
694 734 3
695 696 2
695 735 3
696 697 2
696 736 5
697 698 4
697 737 4
698 699 3
698 738 4
699 700 4
699 739 5
700 701 3
700 740 3
701 702 3
701 741 3
702 703 4
702 742 3
703 704 4
703 743 5
704 705 1
704 744 4
705 706 5
705 745 3
706 707 1
706 746 2
707 708 4
707 747 3
708 709 1
708 748 4
709 710 2
709 749 4
710 711 3
710 750 5
711 712 2
711 751 3
712 713 5
712 752 1
713 714 1
713 753 2
714 715 3
714 754 4
715 716 5
715 755 4
716 717 5
716 756 5
717 718 2
717 757 4
718 719 2
718 758 3
719 720 3
719 759 5
720 760 3
721 722 5
721 761 5
722 723 2
722 762 3
723 724 3
723 763 5
724 725 5
724 764 3
725 726 2
725 765 5
726 727 4
726 766 2
727 728 3
727 767 2
728 729 5
728 768 2
729 730 4
729 769 1
730 731 3
730 770 2
731 732 2
731 771 4
732 733 2
732 772 5
733 734 1
733 773 5
734 735 5
734 774 5
735 736 1
735 775 4
736 737 2
736 776 5
737 738 3
737 777 2
738 739 3
738 778 4
739 740 1
739 779 2
740 741 1
740 780 4
741 742 4
741 781 5
742 743 3
742 782 5
743 744 1
743 783 3
744 745 2
744 784 3
745 746 3
745 785 1
746 747 2
746 786 2
747 748 4
747 787 2
748 749 2
748 788 3
749 750 3
749 789 5
750 751 4
750 790 5
751 752 3
751 791 5
752 753 2
752 792 2
753 754 2
753 793 2
754 755 5
754 794 2
755 756 5
755 795 5
756 757 3
756 796 3
757 758 1
757 797 4
758 759 3
758 798 2
759 760 5
759 799 1
760 800 1
761 762 4
761 801 5
762 763 1
762 802 4
763 764 1
763 803 2
764 765 4
764 804 1
765 766 4
765 805 4
766 767 5
766 806 1
767 768 5
767 807 2
768 769 5
768 808 2
769 770 2
769 809 1
770 771 2
770 810 3
771 772 2
771 811 3
772 773 1
772 812 3
773 774 3
773 813 4
774 775 3
774 814 1
775 776 2
775 815 4
776 777 1
776 816 3
777 778 4
777 817 2
778 779 4
778 818 4
779 780 3
779 819 3
780 781 5
780 820 2
781 782 5
781 821 5
782 783 5
782 822 2
783 784 4
783 823 4
784 785 5
784 824 1
785 786 3
785 825 5
786 787 3
786 826 3
787 788 1
787 827 2
788 789 3
788 828 5
789 790 3
789 829 1
790 791 1
790 830 5
791 792 4
791 831 2
792 793 4
792 832 1
793 794 4
793 833 3
794 795 1
794 834 4
795 796 1
795 835 4
796 797 3
796 836 4
797 798 5
797 837 3
798 799 3
798 838 4
799 800 4
799 839 2
800 840 2
801 802 5
801 841 3
802 803 2
802 842 4
803 804 1
803 843 3
804 805 4
804 844 5
805 806 2
805 845 1
806 807 3
806 846 4
807 808 4
807 847 2
808 809 4
808 848 1
809 810 4
809 849 5
810 811 3
810 850 4
811 812 4
811 851 1
812 813 4
812 852 3
813 814 5
813 853 1
814 815 1
814 854 2
815 816 2
815 855 1
816 817 3
816 856 5
817 818 4
817 857 2
818 819 2
818 858 2
819 820 4
819 859 1
820 821 4
820 860 4
821 822 2
821 861 1
822 823 4
822 862 1
823 824 2
823 863 5
824 825 4
824 864 5
825 826 1
825 865 5
826 827 5
826 866 3
827 828 5
827 867 4
828 829 4
828 868 3
829 830 1
829 869 3
830 831 4
830 870 4
831 832 3
831 871 3
832 833 4
832 872 2
833 834 4
833 873 1
834 835 2
834 874 1
835 836 5
835 875 5
836 837 2
836 876 5
837 838 5
837 877 4
838 839 5
838 878 5
839 840 5
839 879 1
840 880 5
841 842 3
841 881 4
842 843 1
842 882 1
843 844 5
843 883 3
844 845 3
844 884 4
845 846 2
845 885 2
846 847 3
846 886 4
847 848 2
847 887 2
848 849 3
848 888 1
849 850 1
849 889 3
850 851 2
850 890 5
851 852 1
851 891 3
852 853 4
852 892 4
853 854 1
853 893 1
854 855 5
854 894 1
855 856 5
855 895 2
856 857 1
856 896 4
857 858 4
857 897 3
858 859 4
858 898 5
859 860 2
859 899 1
860 861 4
860 900 5
861 862 5
861 901 5
862 863 1
862 902 2
863 864 1
863 903 4
864 865 4
864 904 3
865 866 2
865 905 1
866 867 5
866 906 1
867 868 2
867 907 5
868 869 3
868 908 1
869 870 1
869 909 2
870 871 4
870 910 4
871 872 3
871 911 2
872 873 1
872 912 4
873 874 4
873 913 4
874 875 1
874 914 3
875 876 5
875 915 2
876 877 4
876 916 4
877 878 3
877 917 5
878 879 2
878 918 4
879 880 4
879 919 2
880 920 4
881 882 2
881 921 4
882 883 4
882 922 1
883 884 1
883 923 2
884 885 4
884 924 3
885 886 3
885 925 5
886 887 1
886 926 3
887 888 5
887 927 3
888 889 3
888 928 1
889 890 5
889 929 1
890 891 5
890 930 3
891 892 3
891 931 4
892 893 1
892 932 3
893 894 5
893 933 5
894 895 1
894 934 2
895 896 3
895 935 2
896 897 2
896 936 3
897 898 5
897 937 4
898 899 4
898 938 4
899 900 4
899 939 4
900 901 5
900 940 4
901 902 4
901 941 1
902 903 4
902 942 3
903 904 2
903 943 1
904 905 4
904 944 5
905 906 3
905 945 4
906 907 3
906 946 1
907 908 1
907 947 1
908 909 5
908 948 1
909 910 3
909 949 1
910 911 1
910 950 3
911 912 5
911 951 1
912 913 2
912 952 2
913 914 2
913 953 4
914 915 5
914 954 5
915 916 1
915 955 5
916 917 1
916 956 5
917 918 1
917 957 4
918 919 2
918 958 4
919 920 3
919 959 2
920 960 4
921 922 1
921 961 5
922 923 5
922 962 5
923 924 2
923 963 2
924 925 2
924 964 1
925 926 2
925 965 2
926 927 5
926 966 5
927 928 5
927 967 1
928 929 4
928 968 3
929 930 5
929 969 3
930 931 5
930 970 2
931 932 3
931 971 3
932 933 2
932 972 3
933 934 5
933 973 3
934 935 1
934 974 1
935 936 1
935 975 2
936 937 5
936 976 3
937 938 5
937 977 5
938 939 4
938 978 1
939 940 2
939 979 2
940 941 4
940 980 3
941 942 4
941 981 3
942 943 3
942 982 1
943 944 4
943 983 2
944 945 2
944 984 5
945 946 5
945 985 3
946 947 3
946 986 1
947 948 5
947 987 3
948 949 4
948 988 1
949 950 1
949 989 1
950 951 2
950 990 2
951 952 3
951 991 4
952 953 3
952 992 4
953 954 2
953 993 4
954 955 2
954 994 3
955 956 5
955 995 4
956 957 4
956 996 4
957 958 3
957 997 2
958 959 3
958 998 5
959 960 5
959 999 2
960 1000 5
961 962 1
961 1001 5
962 963 5
962 1002 4
963 964 5
963 1003 5
964 965 3
964 1004 2
965 966 5
965 1005 4
966 967 3
966 1006 1
967 968 5
967 1007 4
968 969 2
968 1008 2
969 970 3
969 1009 4
970 971 3
970 1010 2
971 972 5
971 1011 2
972 973 4
972 1012 1
973 974 3
973 1013 1
974 975 1
974 1014 4
975 976 5
975 1015 3
976 977 4
976 1016 4
977 978 2
977 1017 5
978 979 2
978 1018 2
979 980 3
979 1019 2
980 981 4
980 1020 2
981 982 3
981 1021 3
982 983 3
982 1022 5
983 984 4
983 1023 2
984 985 5
984 1024 4
985 986 5
985 1025 2
986 987 5
986 1026 5
987 988 1
987 1027 5
988 989 2
988 1028 3
989 990 2
989 1029 4
990 991 5
990 1030 2
991 992 1
991 1031 3
992 993 5
992 1032 5
993 994 4
993 1033 1
994 995 3
994 1034 3
995 996 3
995 1035 2
996 997 1
996 1036 1
997 998 2
997 1037 3
998 999 3
998 1038 5
999 1000 3
999 1039 3
1000 1040 3
1001 1002 5
1001 1041 3
1002 1003 5
1002 1042 5
1003 1004 1
1003 1043 2
1004 1005 5
1004 1044 5
1005 1006 5
1005 1045 1
1006 1007 3
1006 1046 2
1007 1008 5
1007 1047 3
1008 1009 4
1008 1048 1
1009 1010 3
1009 1049 5
1010 1011 2
1010 1050 1
1011 1012 5
1011 1051 3
1012 1013 2
1012 1052 3
1013 1014 5
1013 1053 4
1014 1015 4
1014 1054 4
1015 1016 4
1015 1055 2
1016 1017 1
1016 1056 1
1017 1018 5
1017 1057 5
1018 1019 1
1018 1058 1
1019 1020 2
1019 1059 5
1020 1021 1
1020 1060 5
1021 1022 5
1021 1061 3
1022 1023 3
1022 1062 2
1023 1024 3
1023 1063 2
1024 1025 3
1024 1064 2
1025 1026 2
1025 1065 3
1026 1027 3
1026 1066 2
1027 1028 4
1027 1067 5
1028 1029 3
1028 1068 5
1029 1030 3
1029 1069 5
1030 1031 4
1030 1070 4
1031 1032 5
1031 1071 5
1032 1033 4
1032 1072 1
1033 1034 2
1033 1073 1
1034 1035 3
1034 1074 4
1035 1036 2
1035 1075 2
1036 1037 5
1036 1076 3
1037 1038 2
1037 1077 3
1038 1039 1
1038 1078 1
1039 1040 4
1039 1079 3
1040 1080 3
1041 1042 2
1041 1081 4
1042 1043 1
1042 1082 3
1043 1044 4
1043 1083 1
1044 1045 2
1044 1084 4
1045 1046 5
1045 1085 5
1046 1047 2
1046 1086 2
1047 1048 5
1047 1087 3
1048 1049 1
1048 1088 1
1049 1050 3
1049 1089 2
1050 1051 4
1050 1090 2
1051 1052 1
1051 1091 3
1052 1053 4
1052 1092 4
1053 1054 5
1053 1093 2
1054 1055 4
1054 1094 4
1055 1056 3
1055 1095 5
1056 1057 2
1056 1096 3
1057 1058 2
1057 1097 3
1058 1059 5
1058 1098 1
1059 1060 5
1059 1099 2
1060 1061 4
1060 1100 4
1061 1062 4
1061 1101 5
1062 1063 3
1062 1102 1
1063 1064 5
1063 1103 4
1064 1065 1
1064 1104 3
1065 1066 3
1065 1105 3
1066 1067 1
1066 1106 2
1067 1068 3
1067 1107 3
1068 1069 5
1068 1108 4
1069 1070 1
1069 1109 1
1070 1071 4
1070 1110 5
1071 1072 1
1071 1111 4
1072 1073 3
1072 1112 2
1073 1074 2
1073 1113 1
1074 1075 3
1074 1114 1
1075 1076 3
1075 1115 3
1076 1077 3
1076 1116 1
1077 1078 5
1077 1117 4
1078 1079 1
1078 1118 1
1079 1080 2
1079 1119 3
1080 1120 4
1081 1082 4
1081 1121 3
1082 1083 2
1082 1122 5
1083 1084 3
1083 1123 5
1084 1085 4
1084 1124 4
1085 1086 1
1085 1125 1
1086 1087 4
1086 1126 4
1087 1088 3
1087 1127 4
1088 1089 4
1088 1128 1
1089 1090 1
1089 1129 3
1090 1091 5
1090 1130 1
1091 1092 5
1091 1131 3
1092 1093 3
1092 1132 2
1093 1094 4
1093 1133 5
1094 1095 1
1094 1134 5
1095 1096 4
1095 1135 4
1096 1097 1
1096 1136 1
1097 1098 2
1097 1137 1
1098 1099 3
1098 1138 1
1099 1100 3
1099 1139 4
1100 1101 2
1100 1140 3
1101 1102 4
1101 1141 2
1102 1103 4
1102 1142 2
1103 1104 5
1103 1143 3
1104 1105 3
1104 1144 1
1105 1106 4
1105 1145 1
1106 1107 4
1106 1146 1
1107 1108 3
1107 1147 2
1108 1109 1
1108 1148 4
1109 1110 5
1109 1149 3
1110 1111 5
1110 1150 3
1111 1112 3
1111 1151 5
1112 1113 4
1112 1152 3
1113 1114 1
1113 1153 3
1114 1115 1
1114 1154 2
1115 1116 4
1115 1155 2
1116 1117 5
1116 1156 3
1117 1118 1
1117 1157 4
1118 1119 2
1118 1158 4
1119 1120 4
1119 1159 1
1120 1160 2
1121 1122 4
1121 1161 4
1122 1123 2
1122 1162 3
1123 1124 1
1123 1163 3
1124 1125 1
1124 1164 1
1125 1126 3
1125 1165 4
1126 1127 4
1126 1166 2
1127 1128 3
1127 1167 4
1128 1129 4
1128 1168 1
1129 1130 4
1129 1169 3
1130 1131 1
1130 1170 3
1131 1132 3
1131 1171 3
1132 1133 3
1132 1172 1
1133 1134 5
1133 1173 3
1134 1135 5
1134 1174 2
1135 1136 2
1135 1175 3
1136 1137 5
1136 1176 3
1137 1138 1
1137 1177 5
1138 1139 4
1138 1178 2
1139 1140 1
1139 1179 4
1140 1141 3
1140 1180 2
1141 1142 1
1141 1181 5
1142 1143 4
1142 1182 2
1143 1144 5
1143 1183 3
1144 1145 1
1144 1184 1
1145 1146 3
1145 1185 5
1146 1147 3
1146 1186 5
1147 1148 3
1147 1187 2
1148 1149 5
1148 1188 2
1149 1150 5
1149 1189 3
1150 1151 2
1150 1190 1
1151 1152 4
1151 1191 3
1152 1153 1
1152 1192 4
1153 1154 4
1153 1193 4
1154 1155 4
1154 1194 4
1155 1156 1
1155 1195 5
1156 1157 4
1156 1196 2
1157 1158 4
1157 1197 2
1158 1159 5
1158 1198 5
1159 1160 3
1159 1199 2
1160 1200 2
1161 1162 4
1161 1201 4
1162 1163 3
1162 1202 1
1163 1164 4
1163 1203 3
1164 1165 1
1164 1204 3
1165 1166 4
1165 1205 2
1166 1167 5
1166 1206 5
1167 1168 3
1167 1207 1
1168 1169 1
1168 1208 2
1169 1170 2
1169 1209 5
1170 1171 1
1170 1210 2
1171 1172 4
1171 1211 5
1172 1173 4
1172 1212 3
1173 1174 4
1173 1213 5
1174 1175 5
1174 1214 1
1175 1176 2
1175 1215 3
1176 1177 4
1176 1216 4
1177 1178 3
1177 1217 5
1178 1179 1
1178 1218 2
1179 1180 3
1179 1219 3
1180 1181 4
1180 1220 2
1181 1182 3
1181 1221 4
1182 1183 1
1182 1222 3
1183 1184 5
1183 1223 5
1184 1185 2
1184 1224 5
1185 1186 3
1185 1225 2
1186 1187 2
1186 1226 5
1187 1188 5
1187 1227 5
1188 1189 3
1188 1228 3
1189 1190 2
1189 1229 1
1190 1191 1
1190 1230 5
1191 1192 3
1191 1231 2
1192 1193 4
1192 1232 3
1193 1194 4
1193 1233 2
1194 1195 2
1194 1234 4
1195 1196 1
1195 1235 3
1196 1197 1
1196 1236 3
1197 1198 4
1197 1237 1
1198 1199 3
1198 1238 4
1199 1200 1
1199 1239 5
1200 1240 5
1201 1202 3
1201 1241 5
1202 1203 4
1202 1242 2
1203 1204 5
1203 1243 2
1204 1205 1
1204 1244 2
1205 1206 3
1205 1245 4
1206 1207 4
1206 1246 1
1207 1208 4
1207 1247 3
1208 1209 4
1208 1248 5
1209 1210 5
1209 1249 2
1210 1211 4
1210 1250 5
1211 1212 5
1211 1251 1
1212 1213 3
1212 1252 1
1213 1214 4
1213 1253 3
1214 1215 1
1214 1254 4
1215 1216 5
1215 1255 3
1216 1217 1
1216 1256 1
1217 1218 1
1217 1257 4
1218 1219 4
1218 1258 2
1219 1220 1
1219 1259 1
1220 1221 1
1220 1260 1
1221 1222 2
1221 1261 3
1222 1223 3
1222 1262 4
1223 1224 5
1223 1263 5
1224 1225 5
1224 1264 4
1225 1226 2
1225 1265 2
1226 1227 3
1226 1266 5
1227 1228 3
1227 1267 5
1228 1229 3
1228 1268 2
1229 1230 5
1229 1269 5
1230 1231 5
1230 1270 2
1231 1232 3
1231 1271 3
1232 1233 2
1232 1272 4
1233 1234 4
1233 1273 1
1234 1235 1
1234 1274 4
1235 1236 3
1235 1275 3
1236 1237 2
1236 1276 3
1237 1238 1
1237 1277 2
1238 1239 5
1238 1278 4
1239 1240 1
1239 1279 4
1240 1280 5
1241 1242 1
1241 1281 5
1242 1243 2
1242 1282 3
1243 1244 1
1243 1283 5
1244 1245 2
1244 1284 5
1245 1246 3
1245 1285 2
1246 1247 2
1246 1286 3
1247 1248 4
1247 1287 3
1248 1249 5
1248 1288 4
1249 1250 5
1249 1289 3
1250 1251 3
1250 1290 4
1251 1252 1
1251 1291 1
1252 1253 2
1252 1292 4
1253 1254 2
1253 1293 5
1254 1255 3
1254 1294 1
1255 1256 5
1255 1295 1
1256 1257 3
1256 1296 2
1257 1258 5
1257 1297 5
1258 1259 4
1258 1298 1
1259 1260 3
1259 1299 2
1260 1261 2
1260 1300 1
1261 1262 4
1261 1301 5
1262 1263 5
1262 1302 1
1263 1264 2
1263 1303 4
1264 1265 2
1264 1304 4
1265 1266 3
1265 1305 5
1266 1267 1
1266 1306 5
1267 1268 4
1267 1307 1
1268 1269 5
1268 1308 1
1269 1270 2
1269 1309 1
1270 1271 1
1270 1310 4
1271 1272 5
1271 1311 4
1272 1273 2
1272 1312 4
1273 1274 1
1273 1313 1
1274 1275 4
1274 1314 1
1275 1276 3
1275 1315 1
1276 1277 1
1276 1316 5
1277 1278 4
1277 1317 4
1278 1279 1
1278 1318 4
1279 1280 4
1279 1319 4
1280 1320 3
1281 1282 2
1281 1321 1
1282 1283 3
1282 1322 5
1283 1284 5
1283 1323 1
1284 1285 1
1284 1324 5
1285 1286 4
1285 1325 2
1286 1287 5
1286 1326 4
1287 1288 5
1287 1327 3
1288 1289 4
1288 1328 3
1289 1290 1
1289 1329 5
1290 1291 3
1290 1330 1
1291 1292 2
1291 1331 2
1292 1293 2
1292 1332 5
1293 1294 1
1293 1333 3
1294 1295 4
1294 1334 2
1295 1296 4
1295 1335 4
1296 1297 5
1296 1336 5
1297 1298 1
1297 1337 3
1298 1299 2
1298 1338 2
1299 1300 2
1299 1339 5
1300 1301 4
1300 1340 5
1301 1302 1
1301 1341 1
1302 1303 2
1302 1342 2
1303 1304 2
1303 1343 5
1304 1305 4
1304 1344 1
1305 1306 5
1305 1345 1
1306 1307 1
1306 1346 4
1307 1308 2
1307 1347 5
1308 1309 3
1308 1348 5
1309 1310 5
1309 1349 2
1310 1311 4
1310 1350 1
1311 1312 1
1311 1351 3
1312 1313 5
1312 1352 5
1313 1314 3
1313 1353 5
1314 1315 1
1314 1354 3
1315 1316 5
1315 1355 2
1316 1317 3
1316 1356 1
1317 1318 3
1317 1357 4
1318 1319 1
1318 1358 2
1319 1320 1
1319 1359 2
1320 1360 4
1321 1322 5
1321 1361 4
1322 1323 4
1322 1362 1
1323 1324 5
1323 1363 4
1324 1325 5
1324 1364 5
1325 1326 1
1325 1365 3
1326 1327 3
1326 1366 3
1327 1328 4
1327 1367 5
1328 1329 2
1328 1368 2
1329 1330 5
1329 1369 4
1330 1331 3
1330 1370 3
1331 1332 1
1331 1371 2
1332 1333 3
1332 1372 5
1333 1334 4
1333 1373 2
1334 1335 2
1334 1374 1
1335 1336 3
1335 1375 1
1336 1337 1
1336 1376 2
1337 1338 4
1337 1377 3
1338 1339 1
1338 1378 3
1339 1340 1
1339 1379 2
1340 1341 3
1340 1380 4
1341 1342 5
1341 1381 3
1342 1343 4
1342 1382 4
1343 1344 2
1343 1383 1
1344 1345 5
1344 1384 3
1345 1346 1
1345 1385 2
1346 1347 1
1346 1386 2
1347 1348 2
1347 1387 3
1348 1349 5
1348 1388 2
1349 1350 2
1349 1389 4
1350 1351 2
1350 1390 5
1351 1352 1
1351 1391 3
1352 1353 4
1352 1392 4
1353 1354 5
1353 1393 4
1354 1355 5
1354 1394 1
1355 1356 3
1355 1395 4
1356 1357 2
1356 1396 3
1357 1358 1
1357 1397 4
1358 1359 4
1358 1398 4
1359 1360 2
1359 1399 5
1360 1400 4
1361 1362 4
1361 1401 1
1362 1363 2
1362 1402 1
1363 1364 2
1363 1403 3
1364 1365 2
1364 1404 1
1365 1366 5
1365 1405 2
1366 1367 3
1366 1406 2
1367 1368 3
1367 1407 4
1368 1369 2
1368 1408 5
1369 1370 5
1369 1409 3
1370 1371 3
1370 1410 2
1371 1372 3
1371 1411 5
1372 1373 5
1372 1412 5
1373 1374 3
1373 1413 3
1374 1375 2
1374 1414 2
1375 1376 5
1375 1415 5
1376 1377 2
1376 1416 4
1377 1378 4
1377 1417 2
1378 1379 3
1378 1418 4
1379 1380 4
1379 1419 5
1380 1381 1
1380 1420 5
1381 1382 2
1381 1421 3
1382 1383 3
1382 1422 4
1383 1384 3
1383 1423 4
1384 1385 5
1384 1424 1
1385 1386 5
1385 1425 2
1386 1387 2
1386 1426 2
1387 1388 4
1387 1427 1
1388 1389 5
1388 1428 4
1389 1390 5
1389 1429 4
1390 1391 3
1390 1430 5
1391 1392 2
1391 1431 4
1392 1393 5
1392 1432 1
1393 1394 1
1393 1433 3
1394 1395 4
1394 1434 1
1395 1396 2
1395 1435 2
1396 1397 1
1396 1436 5
1397 1398 5
1397 1437 3
1398 1399 5
1398 1438 4
1399 1400 2
1399 1439 5
1400 1440 2
1401 1402 4
1401 1441 2
1402 1403 4
1402 1442 3
1403 1404 1
1403 1443 4
1404 1405 5
1404 1444 1
1405 1406 3
1405 1445 2
1406 1407 5
1406 1446 3
1407 1408 4
1407 1447 2
1408 1409 4
1408 1448 4
1409 1410 5
1409 1449 3
1410 1411 5
1410 1450 1
1411 1412 4
1411 1451 1
1412 1413 2
1412 1452 1
1413 1414 5
1413 1453 3
1414 1415 2
1414 1454 4
1415 1416 2
1415 1455 1
1416 1417 5
1416 1456 2
1417 1418 1
1417 1457 1
1418 1419 2
1418 1458 4
1419 1420 4
1419 1459 1
1420 1421 3
1420 1460 4
1421 1422 3
1421 1461 3
1422 1423 3
1422 1462 4
1423 1424 2
1423 1463 4
1424 1425 2
1424 1464 1
1425 1426 1
1425 1465 3
1426 1427 1
1426 1466 3
1427 1428 5
1427 1467 1
1428 1429 3
1428 1468 4
1429 1430 1
1429 1469 5
1430 1431 5
1430 1470 3
1431 1432 2
1431 1471 5
1432 1433 3
1432 1472 1
1433 1434 4
1433 1473 3
1434 1435 4
1434 1474 2
1435 1436 5
1435 1475 2
1436 1437 1
1436 1476 3
1437 1438 2
1437 1477 2
1438 1439 1
1438 1478 5
1439 1440 3
1439 1479 4
1440 1480 1
1441 1442 5
1441 1481 3
1442 1443 1
1442 1482 4
1443 1444 5
1443 1483 2
1444 1445 1
1444 1484 3
1445 1446 1
1445 1485 4
1446 1447 2
1446 1486 3
1447 1448 4
1447 1487 2
1448 1449 1
1448 1488 4
1449 1450 5
1449 1489 4
1450 1451 3
1450 1490 3
1451 1452 1
1451 1491 3
1452 1453 2
1452 1492 3
1453 1454 2
1453 1493 3
1454 1455 1
1454 1494 5
1455 1456 1
1455 1495 1
1456 1457 1
1456 1496 5
1457 1458 5
1457 1497 4
1458 1459 5
1458 1498 2
1459 1460 1
1459 1499 4
1460 1461 2
1460 1500 2
1461 1462 2
1461 1501 1
1462 1463 2
1462 1502 2
1463 1464 5
1463 1503 4
1464 1465 4
1464 1504 4
1465 1466 1
1465 1505 2
1466 1467 3
1466 1506 5
1467 1468 1
1467 1507 4
1468 1469 4
1468 1508 5
1469 1470 4
1469 1509 3
1470 1471 3
1470 1510 4
1471 1472 3
1471 1511 4
1472 1473 1
1472 1512 4
1473 1474 1
1473 1513 3
1474 1475 4
1474 1514 2
1475 1476 4
1475 1515 4
1476 1477 3
1476 1516 2
1477 1478 3
1477 1517 5
1478 1479 2
1478 1518 4
1479 1480 3
1479 1519 5
1480 1520 1
1481 1482 3
1481 1521 5
1482 1483 5
1482 1522 1
1483 1484 1
1483 1523 4
1484 1485 1
1484 1524 2
1485 1486 3
1485 1525 4
1486 1487 2
1486 1526 5
1487 1488 3
1487 1527 3
1488 1489 1
1488 1528 1
1489 1490 1
1489 1529 3
1490 1491 3
1490 1530 5
1491 1492 1
1491 1531 2
1492 1493 3
1492 1532 5
1493 1494 3
1493 1533 2
1494 1495 5
1494 1534 4
1495 1496 3
1495 1535 5
1496 1497 3
1496 1536 1
1497 1498 3
1497 1537 1
1498 1499 4
1498 1538 2
1499 1500 4
1499 1539 1
1500 1501 5
1500 1540 1
1501 1502 1
1501 1541 3
1502 1503 3
1502 1542 3
1503 1504 4
1503 1543 4
1504 1505 3
1504 1544 4
1505 1506 2
1505 1545 3
1506 1507 3
1506 1546 1
1507 1508 5
1507 1547 3
1508 1509 4
1508 1548 4
1509 1510 3
1509 1549 1
1510 1511 4
1510 1550 1
1511 1512 2
1511 1551 2
1512 1513 3
1512 1552 1
1513 1514 4
1513 1553 4
1514 1515 5
1514 1554 1
1515 1516 3
1515 1555 5
1516 1517 3
1516 1556 1
1517 1518 3
1517 1557 1
1518 1519 1
1518 1558 3
1519 1520 1
1519 1559 4
1520 1560 3
1521 1522 2
1521 1561 4
1522 1523 2
1522 1562 2
1523 1524 2
1523 1563 3
1524 1525 3
1524 1564 5
1525 1526 2
1525 1565 4
1526 1527 4
1526 1566 3
1527 1528 2
1527 1567 3
1528 1529 3
1528 1568 3
1529 1530 3
1529 1569 1
1530 1531 4
1530 1570 5
1531 1532 1
1531 1571 2
1532 1533 4
1532 1572 2
1533 1534 4
1533 1573 1
1534 1535 1
1534 1574 2
1535 1536 2
1535 1575 1
1536 1537 3
1536 1576 5
1537 1538 3
1537 1577 4
1538 1539 2
1538 1578 4
1539 1540 4
1539 1579 5
1540 1541 1
1540 1580 2
1541 1542 3
1541 1581 5
1542 1543 5
1542 1582 1
1543 1544 5
1543 1583 5
1544 1545 2
1544 1584 1
1545 1546 1
1545 1585 3
1546 1547 2
1546 1586 3
1547 1548 3
1547 1587 5
1548 1549 3
1548 1588 1
1549 1550 3
1549 1589 4
1550 1551 5
1550 1590 3
1551 1552 5
1551 1591 3
1552 1553 5
1552 1592 2
1553 1554 5
1553 1593 4
1554 1555 1
1554 1594 5
1555 1556 3
1555 1595 5
1556 1557 2
1556 1596 4
1557 1558 3
1557 1597 1
1558 1559 4
1558 1598 5
1559 1560 4
1559 1599 3
1560 1600 5
1561 1562 1
1562 1563 5
1563 1564 2
1564 1565 3
1565 1566 1
1566 1567 2
1567 1568 1
1568 1569 2
1569 1570 5
1570 1571 2
1571 1572 1
1572 1573 3
1573 1574 2
1574 1575 2
1575 1576 3
1576 1577 5
1577 1578 1
1578 1579 1
1579 1580 1
1580 1581 4
1581 1582 5
1582 1583 1
1583 1584 5
1584 1585 4
1585 1586 5
1586 1587 2
1587 1588 5
1588 1589 3
1589 1590 5
1590 1591 1
1591 1592 2
1592 1593 3
1593 1594 1
1594 1595 5
1595 1596 5
1596 1597 2
1597 1598 2
1598 1599 2
1599 1600 4
1 1561 2
2 1562 1
3 1563 3
4 1564 5
5 1565 3
6 1566 5
7 1567 4
8 1568 2
9 1569 3
10 1570 1
11 1571 2
12 1572 4
13 1573 1
14 1574 1
15 1575 4
16 1576 4
17 1577 2
18 1578 2
19 1579 4
20 1580 5
21 1581 4
22 1582 4
23 1583 5
24 1584 4
25 1585 4
26 1586 4
27 1587 1
28 1588 2
29 1589 5
30 1590 2
31 1591 1
32 1592 5
33 1593 5
34 1594 5
35 1595 1
36 1596 5
37 1597 2
38 1598 3
39 1599 5
40 1600 2
1 40 1
41 80 1
81 120 2
121 160 4
161 200 1
201 240 5
241 280 1
281 320 2
321 360 3
361 400 1
401 440 5
441 480 2
481 520 3
521 560 5
561 600 5
601 640 2
641 680 5
681 720 5
721 760 1
761 800 2
801 840 3
841 880 5
881 920 5
921 960 1
961 1000 4
1001 1040 5
1041 1080 3
1081 1120 5
1121 1160 4
1161 1200 5
1201 1240 2
1241 1280 3
1281 1320 5
1321 1360 2
1361 1400 5
1401 1440 1
1441 1480 3
1481 1520 2
1521 1560 3
1561 1600 4
